# 47362
param k := 6;
param n := 60;
param s := 1;
set E :=  (0,12) (0,27) (1,45) (1,57) (2,10) (2,13) (2,20) (3,6) (3,41) (3,48) (4,26) (4,39) (5,8) (6,38) (7,32) (7,56) (7,58) (8,17) (8,28) (9,53) (11,13) (11,23) (11,40) (13,34) (13,55) (14,18) (14,19) (14,39) (14,49) (15,50) (16,29) (17,42) (18,37) (21,40) (22,31) (24,36) (24,50) (25,36) (27,40) (27,46) (28,51) (29,39) (30,37) (31,44) (31,49) (33,38) (34,50) (35,40) (37,43) (39,55) (40,48) (42,53) (42,56) (44,56) (45,49) (45,54) (47,49) (52,53) (53,59);